p cnf 7230 16
-5645 -5821 -5967 0
-5643 -5829 5965 0
5645 -5968 0
5643 -5966 0
5967 5968 0
-5965 5966 0
5963 5964 0
5817 -5964 0
-5817 -5963 0
5961 5962 0
5813 -5962 0
-5813 -5961 0
5821 -5968 0
5829 -5966 0
5647 -5970 0
-5959 5960 0
